10  10
  0  33  1  70  2  23  3  76  4  56  5  74  6  2  7  39  8  8  9  81
  0  95  1  68  2  2  3  64  4  57  5  79  6  73  7  39  8  2  9  79
  0  9  1  5  2  85  3  37  4  96  5  48  6  23  7  2  8  99  9  10
  0  17  1  57  2  44  3  43  4  38  5  76  6  50  7  6  8  89  9  3
  0  76  1  64  2  17  3  82  4  29  5  9  6  64  7  20  8  77  9  94
  0  95  1  29  2  65  3  69  4  13  5  9  6  12  7  52  8  45  9  57
  0  46  1  63  2  2  3  5  4  14  5  37  6  4  7  42  8  50  9  46
  0  40  1  57  2  10  3  38  4  5  5  11  6  5  7  57  8  25  9  25
  0  69  1  91  2  79  3  56  4  81  5  85  6  58  7  71  8  88  9  98
  0  39  1  64  2  21  3  92  4  46  5  65  6  4  7  99  8  45  9  42
